DIMACS2
40 5 260 74 249 0 98 259 68 310 198 134 73 254 301 282 87 129 204 194 105 302 54 107 67 242 109 178 37 200 20 179 96 17 239 298 175 92 119 281 238
p edge 320 543
e 0 151 21.0
e 0 217 38.0
e 0 26 5.0
e 0 107 20.0
e 0 178 21.0
e 0 4 19.0
e 0 228 4.0
e 1 135 1.0
e 2 214 1.0
e 3 182 6.0
e 4 115 2.0
e 5 236 6.0
e 5 168 48.0
e 5 22 12.0
e 5 246 19.0
e 5 147 41.0
e 5 308 42.0
e 5 287 22.0
e 5 108 26.0
e 6 118 1.0
e 7 229 1.0
e 8 80 2.0
e 9 209 1.0
e 10 25 2.0
e 11 218 1.0
e 11 0 28.0
e 12 30 2.0
e 13 10 1.0
e 14 241 1.0
e 15 288 1.0
e 16 264 2.0
e 17 216 25.0
e 17 20 45.0
e 17 22 19.0
e 17 103 39.0
e 17 50 27.0
e 17 66 5.0
e 17 78 16.0
e 17 116 14.0
e 18 99 1.0
e 19 39 2.0
e 20 119 10.0
e 20 67 17.0
e 20 284 8.0
e 20 43 13.0
e 20 54 3.0
e 20 98 41.0
e 20 24 20.0
e 20 200 23.0
e 21 141 1.0
e 22 200 5.0
e 23 130 2.0
e 24 281 31.0
e 24 134 4.0
e 25 42 1.0
e 26 189 1.0
e 27 162 1.0
e 28 148 1.0
e 29 315 1.0
e 30 214 1.0
e 31 18 1.0
e 32 105 11.0
e 32 265 5.0
e 33 108 3.0
e 34 178 16.0
e 35 286 2.0
e 36 197 1.0
e 37 204 25.0
e 37 61 23.0
e 37 293 12.0
e 37 6 7.0
e 37 87 35.0
e 37 5 28.0
e 37 221 34.0
e 37 124 40.0
e 38 84 1.0
e 39 126 2.0
e 40 101 1.0
e 41 187 1.0
e 42 131 1.0
e 43 182 5.0
e 44 210 1.0
e 44 298 4.0
e 45 289 1.0
e 46 208 1.0
e 47 259 8.0
e 48 220 1.0
e 49 85 1.0
e 50 267 2.0
e 51 282 35.0
e 51 3 2.0
e 52 131 1.0
e 53 188 1.0
e 54 109 24.0
e 54 56 8.0
e 54 159 7.0
e 54 301 35.0
e 54 44 15.0
e 54 0 28.0
e 54 75 11.0
e 54 125 16.0
e 55 70 1.0
e 56 263 1.0
e 57 253 1.0
e 58 101 1.0
e 59 11 1.0
e 60 299 1.0
e 61 49 1.0
e 62 41 1.0
e 63 295 1.0
e 64 257 1.0
e 65 134 32.0
e 66 241 3.0
e 67 100 31.0
e 67 253 32.0
e 67 94 8.0
e 67 7 22.0
e 67 105 27.0
e 68 177 8.0
e 68 15 38.0
e 68 298 45.0
e 68 203 20.0
e 68 251 20.0
e 68 62 19.0
e 68 117 40.0
e 69 68 37.0
e 70 226 1.0
e 71 199 2.0
e 72 161 1.0
e 73 307 4.0
e 73 102 29.0
e 73 24 45.0
e 73 194 12.0
e 73 1 27.0
e 73 51 31.0
e 73 53 23.0
e 73 223 43.0
e 74 311 26.0
e 74 271 40.0
e 74 225 32.0
e 74 212 13.0
e 74 163 24.0
e 74 279 16.0
e 74 129 25.0
e 74 78 15.0
e 75 128 1.0
e 76 211 1.0
e 77 76 1.0
e 78 5 7.0
e 79 16 2.0
e 80 277 1.0
e 81 145 1.0
e 82 276 1.0
e 83 165 1.0
e 84 244 1.0
e 85 99 2.0
e 86 118 1.0
e 87 13 26.0
e 87 72 3.0
e 87 304 49.0
e 87 31 38.0
e 87 224 20.0
e 87 91 34.0
e 87 98 14.0
e 88 313 3.0
e 89 201 1.0
e 90 281 26.0
e 91 112 1.0
e 92 209 41.0
e 92 96 10.0
e 92 231 29.0
e 92 12 38.0
e 92 17 7.0
e 92 105 35.0
e 92 310 22.0
e 92 232 27.0
e 92 194 40.0
e 93 98 5.0
e 94 281 28.0
e 95 267 2.0
e 96 185 36.0
e 96 87 19.0
e 96 234 49.0
e 96 134 19.0
e 96 204 47.0
e 96 155 44.0
e 96 298 40.0
e 96 20 49.0
e 97 317 1.0
e 98 59 44.0
e 98 119 42.0
e 98 171 28.0
e 98 136 35.0
e 98 26 45.0
e 99 296 2.0
e 100 233 1.0
e 101 17 14.0
e 102 67 23.0
e 103 274 2.0
e 104 45 1.0
e 105 315 6.0
e 105 168 49.0
e 105 27 31.0
e 105 107 3.0
e 105 249 11.0
e 105 98 11.0
e 106 109 17.0
e 107 99 25.0
e 107 259 25.0
e 107 302 17.0
e 107 273 32.0
e 107 242 48.0
e 108 259 35.0
e 109 267 48.0
e 109 184 22.0
e 109 237 35.0
e 109 105 43.0
e 109 37 10.0
e 109 107 2.0
e 109 28 22.0
e 110 260 36.0
e 111 248 5.0
e 112 60 2.0
e 113 286 1.0
e 114 166 1.0
e 114 11 1.0
e 115 10 2.0
e 116 82 2.0
e 117 22 8.0
e 118 146 1.0
e 119 74 30.0
e 119 254 7.0
e 119 249 14.0
e 119 167 12.0
e 119 32 4.0
e 119 137 45.0
e 119 29 37.0
e 120 42 1.0
e 121 139 1.0
e 122 93 2.0
e 123 115 1.0
e 124 227 1.0
e 125 79 1.0
e 126 73 45.0
e 127 128 1.0
e 128 202 1.0
e 129 97 6.0
e 129 235 45.0
e 129 34 4.0
e 129 138 31.0
e 129 217 43.0
e 129 169 24.0
e 129 298 33.0
e 130 127 1.0
e 131 292 1.0
e 132 19 1.0
e 133 134 47.0
e 134 98 30.0
e 134 254 37.0
e 134 298 31.0
e 134 238 12.0
e 134 109 1.0
e 135 292 1.0
e 136 79 1.0
e 137 77 1.0
e 138 76 1.0
e 139 164 1.0
e 140 317 1.0
e 141 59 1.0
e 142 183 1.0
e 143 94 2.0
e 144 81 1.0
e 145 186 1.0
e 146 176 1.0
e 147 302 35.0
e 148 14 1.0
e 149 278 1.0
e 150 107 31.0
e 151 230 1.0
e 152 47 5.0
e 153 86 2.0
e 154 110 1.0
e 155 290 1.0
e 156 147 10.0
e 157 16 1.0
e 158 42 1.0
e 159 43 3.0
e 160 213 2.0
e 161 64 1.0
e 162 70 1.0
e 163 166 1.0
e 164 161 1.0
e 165 193 3.0
e 167 57 1.0
e 168 280 5.0
e 169 189 2.0
e 170 257 1.0
e 171 220 1.0
e 172 133 1.0
e 173 108 4.0
e 174 264 2.0
e 175 215 13.0
e 175 173 36.0
e 175 238 11.0
e 175 270 47.0
e 175 204 30.0
e 175 194 35.0
e 175 178 30.0
e 175 258 11.0
e 175 110 31.0
e 176 195 1.0
e 177 250 1.0
e 178 8 40.0
e 178 129 38.0
e 178 35 14.0
e 178 119 29.0
e 178 254 39.0
e 178 194 33.0
e 179 177 6.0
e 179 238 15.0
e 179 134 45.0
e 179 249 13.0
e 179 298 9.0
e 179 36 35.0
e 179 305 27.0
e 179 46 39.0
e 179 154 16.0
e 180 82 2.0
e 181 3 1.0
e 182 225 1.0
e 183 64 1.0
e 184 282 46.0
e 185 86 1.0
e 186 76 1.0
e 187 294 1.0
e 188 133 1.0
e 189 71 1.0
e 190 135 1.0
e 191 222 1.0
e 192 204 44.0
e 193 69 2.0
e 194 160 16.0
e 194 238 48.0
e 194 140 45.0
e 194 142 12.0
e 194 96 11.0
e 195 128 1.0
e 196 84 1.0
e 197 256 1.0
e 198 205 18.0
e 198 175 42.0
e 198 178 11.0
e 198 204 31.0
e 198 238 22.0
e 198 120 23.0
e 198 143 43.0
e 198 259 46.0
e 198 144 12.0
e 199 268 1.0
e 200 52 47.0
e 200 310 21.0
e 200 92 9.0
e 200 121 4.0
e 200 298 29.0
e 200 190 7.0
e 200 147 25.0
e 201 135 1.0
e 202 67 5.0
e 203 90 1.0
e 204 157 14.0
e 204 179 15.0
e 204 301 33.0
e 205 257 1.0
e 206 9 2.0
e 207 135 1.0
e 208 84 1.0
e 209 263 3.0
e 210 309 1.0
e 211 52 1.0
e 212 318 1.0
e 213 292 1.0
e 214 307 2.0
e 215 257 1.0
e 216 13 1.0
e 217 219 2.0
e 218 21 2.0
e 219 81 1.0
e 220 131 3.0
e 221 153 1.0
e 222 112 1.0
e 223 151 1.0
e 224 71 1.0
e 225 238 34.0
e 226 291 1.0
e 227 269 2.0
e 228 272 2.0
e 229 13 2.0
e 230 76 1.0
e 231 174 2.0
e 232 215 2.0
e 233 88 1.0
e 234 101 1.0
e 235 33 1.0
e 236 300 2.0
e 237 89 1.0
e 238 210 42.0
e 238 150 23.0
e 238 239 46.0
e 239 248 28.0
e 239 38 9.0
e 239 310 40.0
e 239 308 34.0
e 239 47 34.0
e 239 152 29.0
e 239 194 13.0
e 239 156 49.0
e 240 129 16.0
e 241 113 1.0
e 242 122 47.0
e 242 180 32.0
e 242 54 27.0
e 242 63 39.0
e 242 158 34.0
e 242 181 39.0
e 242 249 25.0
e 242 238 10.0
e 243 249 14.0
e 244 45 1.0
e 245 297 1.0
e 246 255 1.0
e 247 170 1.0
e 248 79 1.0
e 249 204 37.0
e 249 184 6.0
e 249 239 4.0
e 249 196 39.0
e 250 211 2.0
e 251 65 2.0
e 252 285 1.0
e 253 68 37.0
e 254 207 2.0
e 254 198 40.0
e 254 200 47.0
e 254 275 6.0
e 254 204 42.0
e 255 208 1.0
e 256 247 1.0
e 257 191 1.0
e 258 149 1.0
e 259 233 27.0
e 259 206 38.0
e 259 240 15.0
e 259 242 39.0
e 259 243 21.0
e 260 315 15.0
e 260 245 21.0
e 260 249 12.0
e 260 67 38.0
e 260 254 11.0
e 260 259 12.0
e 260 301 48.0
e 260 262 19.0
e 261 104 1.0
e 262 210 2.0
e 263 101 1.0
e 264 250 1.0
e 265 37 29.0
e 266 209 3.0
e 267 48 1.0
e 268 87 41.0
e 269 126 1.0
e 270 272 1.0
e 271 106 1.0
e 272 64 1.0
e 273 19 1.0
e 274 264 1.0
e 275 252 1.0
e 276 83 1.0
e 277 202 1.0
e 278 174 2.0
e 279 261 3.0
e 280 23 2.0
e 281 213 17.0
e 281 260 22.0
e 281 266 21.0
e 281 282 2.0
e 281 68 36.0
e 281 298 18.0
e 282 207 26.0
e 282 73 46.0
e 282 283 18.0
e 282 74 27.0
e 282 302 16.0
e 282 298 18.0
e 283 132 1.0
e 284 297 2.0
e 285 81 1.0
e 286 176 2.0
e 287 192 2.0
e 288 172 1.0
e 289 95 2.0
e 290 55 2.0
e 291 128 1.0
e 292 123 1.0
e 293 59 1.0
e 294 183 1.0
e 295 307 1.0
e 296 8 1.0
e 297 215 1.0
e 298 269 18.0
e 299 135 1.0
e 300 58 2.0
e 301 189 19.0
e 301 281 17.0
e 301 282 25.0
e 301 302 36.0
e 301 303 4.0
e 302 280 33.0
e 302 306 30.0
e 302 310 6.0
e 302 312 16.0
e 302 314 20.0
e 303 107 26.0
e 304 30 1.0
e 305 81 1.0
e 306 254 44.0
e 307 40 2.0
e 308 86 2.0
e 309 111 1.0
e 310 217 37.0
e 310 301 49.0
e 310 316 6.0
e 310 319 37.0
e 310 2 48.0
e 311 67 39.0
e 312 86 1.0
e 313 0 42.0
e 314 277 2.0
e 315 123 1.0
e 316 301 11.0
e 317 130 1.0
e 318 25 3.0
e 319 149 1.0
